\ Model _copy
\ LP format - for model browsing. Use MPS format to capture full model detail.
Minimize
  0 node_21_0
Subject To
 R265: contract_0_0 + 10000 node_20_0 <= 10000
 R269: node_19_0 = 1
 R392: contract_0_0 + 10000 node_60_0 >= 10000.0001
Bounds
 contract_0_0 free
Binaries
 node_19_0 node_20_0 node_21_0 node_60_0
General Constraints
 GC37: node_19_0 = AND ( node_20_0 , node_21_0 )
End
